p tw 124 416
1 9
2 10
3 11
4 12
5 13
6 14
7 15
8 16
9 19
9 22
9 34
9 36
10 28
10 31
10 34
10 35
11 17
11 21
11 22
11 23
12 21
12 26
12 30
12 33
13 18
13 24
13 28
13 29
14 17
14 18
14 19
14 20
15 24
15 25
15 26
15 27
16 25
16 30
16 31
16 32
17 18
17 19
17 20
17 21
17 22
17 23
18 19
18 20
18 24
18 28
18 29
19 20
19 22
19 34
19 36
20 37
20 38
20 39
20 40
21 22
21 23
21 26
21 30
21 33
22 23
22 34
22 36
23 37
23 41
23 42
23 43
24 25
24 26
24 27
24 28
24 29
25 26
25 27
25 30
25 31
25 32
26 27
26 30
26 33
27 44
27 45
27 46
27 47
28 29
28 31
28 34
28 35
29 38
29 44
29 48
29 49
30 31
30 32
30 33
31 32
31 34
31 35
32 45
32 50
32 51
32 52
33 41
33 46
33 50
33 53
34 35
34 36
35 48
35 51
35 54
35 55
36 39
36 42
36 54
36 56
37 38
37 39
37 40
37 41
37 42
37 43
38 39
38 40
38 44
38 48
38 49
39 40
39 42
39 54
39 56
40 57
40 58
40 59
40 60
41 42
41 43
41 46
41 50
41 53
42 43
42 54
42 56
43 57
43 61
43 62
43 63
44 45
44 46
44 47
44 48
44 49
45 46
45 47
45 50
45 51
45 52
46 47
46 50
46 53
47 64
47 65
47 66
47 67
48 49
48 51
48 54
48 55
49 58
49 64
49 68
49 69
50 51
50 52
50 53
51 52
51 54
51 55
52 65
52 70
52 71
52 72
53 61
53 66
53 70
53 73
54 55
54 56
55 68
55 71
55 74
55 75
56 59
56 62
56 74
56 76
57 58
57 59
57 60
57 61
57 62
57 63
58 59
58 60
58 64
58 68
58 69
59 60
59 62
59 74
59 76
60 77
60 78
60 79
60 80
61 62
61 63
61 66
61 70
61 73
62 63
62 74
62 76
63 77
63 81
63 82
63 83
64 65
64 66
64 67
64 68
64 69
65 66
65 67
65 70
65 71
65 72
66 67
66 70
66 73
67 84
67 85
67 86
67 87
68 69
68 71
68 74
68 75
69 78
69 84
69 88
69 89
70 71
70 72
70 73
71 72
71 74
71 75
72 85
72 90
72 91
72 92
73 81
73 86
73 90
73 93
74 75
74 76
75 88
75 91
75 94
75 95
76 79
76 82
76 94
76 96
77 78
77 79
77 80
77 81
77 82
77 83
78 79
78 80
78 84
78 88
78 89
79 80
79 82
79 94
79 96
80 97
80 98
80 99
80 100
81 82
81 83
81 86
81 90
81 93
82 83
82 94
82 96
83 97
83 101
83 102
83 103
84 85
84 86
84 87
84 88
84 89
85 86
85 87
85 90
85 91
85 92
86 87
86 90
86 93
87 104
87 105
87 106
87 107
88 89
88 91
88 94
88 95
89 98
89 104
89 108
89 109
90 91
90 92
90 93
91 92
91 94
91 95
92 105
92 110
92 111
92 112
93 101
93 106
93 110
93 113
94 95
94 96
95 108
95 111
95 114
95 115
96 99
96 102
96 114
96 116
97 98
97 99
97 100
97 101
97 102
97 103
98 99
98 100
98 104
98 108
98 109
99 100
99 102
99 114
99 116
100 119
101 102
101 103
101 106
101 110
101 113
102 103
102 114
102 116
103 122
104 105
104 106
104 107
104 108
104 109
105 106
105 107
105 110
105 111
105 112
106 107
106 110
106 113
107 118
108 109
108 111
108 114
108 115
109 120
110 111
110 112
110 113
111 112
111 114
111 115
112 117
113 121
114 115
114 116
115 123
116 124
